(set-logic QF_S)
(declare-fun var0 () String)
(declare-fun var1 () Int)
(declare-fun var2 () Bool)
(declare-fun var3 () String)
(declare-fun var4 () Int)
(declare-fun var5 () Bool)
(declare-fun var6 () String)
(declare-fun var7 () Int)
(declare-fun var8 () Bool)
(assert (str.suffixof (str.substr var3 var1 var1) (str.at var6 var7)))
(assert (str.prefixof (str.at var3 1) (str.substr var3 (str.indexof var6 var6 var4) (str.indexof (str.replace var6 var6 var0) (str.replace var6 var6 var6) (str.len var0)))))
(assert (not (not var8)))
(assert (< (str.indexof var0 var0 9) (str.indexof "KhHi}SF'.v" var6 1)))
(check-sat)